Traveling Salesman Problem/TSP_generados/Aleatorio1620390864_6.tsp
NAME: Aleatorio1620390864_6.tsp
COMMENT: Randomly generated scenario
TYPE: TSP
DIMENSION: 6
EDGE_WEIGHT_TYPE: ATT
NODE_COORD_SECTION
1 32.22 45.04
2 49.72 40.25
3 34.28 28.36
4 23.58 35.3
5 43.73 14.67
6 14.22 22.71
