Traveling Salesman Problem/TSP_generados/Aleatorio1620390864_6.opt.tour
NAME: Aleatorio1620390864_6.opt.tour
COMMENT: Optimal solution for Aleatorio1620390864_6 (110.59904742024202)
TYPE: TOUR
DIMENSION: 6
TOUR_SECTION
1 4 6 3 5 2
-1
EOF
